<instance format="XCSP3" type="CSP">
<variables>
<array id="u0" size="[8]"> 0..11 </array>
<array id="id0" size="[8]"> 0..63 </array>
<array id="u1" size="[8]"> 0..11 </array>
<array id="id1" size="[8]"> 0..63 </array>
<array id="u2" size="[8]"> 0..11 </array>
<array id="id2" size="[8]"> 0..63 </array>
<array id="u3" size="[8]"> 0..11 </array>
<array id="id3" size="[8]"> 0..63 </array>
<array id="u4" size="[8]"> 0..11 </array>
<array id="id4" size="[8]"> 0..63 </array>
<array id="u5" size="[8]"> 0..11 </array>
<array id="id5" size="[8]"> 0..63 </array>
<array id="u6" size="[8]"> 0..11 </array>
<array id="id6" size="[8]"> 0..63 </array>
<array id="u7" size="[8]"> 0..11 </array>
<array id="id7" size="[8]"> 0..63 </array>
<array id="d7" size="[8]"> 0..11 </array>
<array id="l0" size="[8]"> 0..11 </array>
<array id="l1" size="[8]"> 0..11 </array>
<array id="l2" size="[8]"> 0..11 </array>
<array id="l3" size="[8]"> 0..11 </array>
<array id="l4" size="[8]"> 0..11 </array>
<array id="l5" size="[8]"> 0..11 </array>
<array id="l6" size="[8]"> 0..11 </array>
<array id="l7" size="[8]"> 0..11 </array>
<array id="r7" size="[8]"> 0..11 </array>
</variables>
<constraints>
<allDifferent> id0[] id1[] id2[] id3[] id4[] id5[] id6[] id7[] </allDifferent>
<group>
<extension>
<list> %0 %1 %2 %3 %4 </list>
<supports> (0,0,0,1,2)(0,0,1,2,0)(0,1,2,0,0)(0,2,0,0,1)(1,0,0,2,1)(1,0,2,1,0)(1,1,0,0,2)(1,2,1,0,0)(2,0,0,2,2)(2,0,2,2,0)(2,2,0,0,2)(2,2,2,0,0)(3,0,0,2,3)(3,0,2,3,0)(3,2,3,0,0)(3,3,0,0,2)(4,0,1,4,1)(4,1,0,1,4)(4,1,4,1,0)(4,4,1,0,1)(5,0,1,5,3)(5,1,5,3,0)(5,3,0,1,5)(5,5,3,0,1)(6,0,1,6,3)(6,1,6,3,0)(6,3,0,1,6)(6,6,3,0,1)(7,0,1,8,1)(7,1,0,1,8)(7,1,8,1,0)(7,8,1,0,1)(8,0,1,8,3)(8,1,8,3,0)(8,3,0,1,8)(8,8,3,0,1)(9,0,1,10,1)(9,1,0,1,10)(9,1,10,1,0)(9,10,1,0,1)(10,0,1,10,2)(10,1,10,2,0)(10,2,0,1,10)(10,10,2,0,1)(11,0,1,11,1)(11,1,0,1,11)(11,1,11,1,0)(11,11,1,0,1)(12,0,1,11,2)(12,1,11,2,0)(12,2,0,1,11)(12,11,2,0,1)(13,0,2,4,1)(13,1,0,2,4)(13,2,4,1,0)(13,4,1,0,2)(14,0,2,4,2)(14,2,0,2,4)(14,2,4,2,0)(14,4,2,0,2)(15,0,2,4,3)(15,2,4,3,0)(15,3,0,2,4)(15,4,3,0,2)(16,0,2,9,1)(16,1,0,2,9)(16,2,9,1,0)(16,9,1,0,2)(17,0,2,9,2)(17,2,0,2,9)(17,2,9,2,0)(17,9,2,0,2)(18,0,2,10,3)(18,2,10,3,0)(18,3,0,2,10)(18,10,3,0,2)(19,0,3,4,2)(19,2,0,3,4)(19,3,4,2,0)(19,4,2,0,3)(20,0,3,4,3)(20,3,0,3,4)(20,3,4,3,0)(20,4,3,0,3)(21,0,3,5,1)(21,1,0,3,5)(21,3,5,1,0)(21,5,1,0,3)(22,0,3,5,2)(22,2,0,3,5)(22,3,5,2,0)(22,5,2,0,3)(23,0,3,9,1)(23,1,0,3,9)(23,3,9,1,0)(23,9,1,0,3)(24,0,3,9,3)(24,3,0,3,9)(24,3,9,3,0)(24,9,3,0,3)(25,0,3,10,2)(25,2,0,3,10)(25,3,10,2,0)(25,10,2,0,3)(26,0,3,11,1)(26,1,0,3,11)(26,3,11,1,0)(26,11,1,0,3)(27,0,3,11,3)(27,3,0,3,11)(27,3,11,3,0)(27,11,3,0,3)(28,4,5,4,7)(28,4,7,4,5)(28,5,4,7,4)(28,7,4,5,4)(29,4,5,10,6)(29,5,10,6,4)(29,6,4,5,10)(29,10,6,4,5)(30,4,6,5,9)(30,5,9,4,6)(30,6,5,9,4)(30,9,4,6,5)(31,4,6,7,5)(31,5,4,6,7)(31,6,7,5,4)(31,7,5,4,6)(32,4,6,10,9)(32,6,10,9,4)(32,9,4,6,10)(32,10,9,4,6)(33,4,7,4,9)(33,4,9,4,7)(33,7,4,9,4)(33,9,4,7,4)(34,4,7,5,6)(34,5,6,4,7)(34,6,4,7,5)(34,7,5,6,4)(35,4,8,7,11)(35,7,11,4,8)(35,8,7,11,4)(35,11,4,8,7)(36,4,8,10,10)(36,8,10,10,4)(36,10,4,8,10)(36,10,10,4,8)(37,4,9,6,5)(37,5,4,9,6)(37,6,5,4,9)(37,9,6,5,4)(38,4,9,6,8)(38,6,8,4,9)(38,8,4,9,6)(38,9,6,8,4)(39,4,10,11,8)(39,8,4,10,11)(39,10,11,8,4)(39,11,8,4,10)(40,4,11,7,10)(40,7,10,4,11)(40,10,4,11,7)(40,11,7,10,4)(41,4,11,8,6)(41,6,4,11,8)(41,8,6,4,11)(41,11,8,6,4)(42,5,5,5,8)(42,5,5,8,5)(42,5,8,5,5)(42,8,5,5,5)(43,5,5,11,10)(43,5,11,10,5)(43,10,5,5,11)(43,11,10,5,5)(44,5,6,10,10)(44,6,10,10,5)(44,10,5,6,10)(44,10,10,5,6)(45,5,7,5,10)(45,5,10,5,7)(45,7,5,10,5)(45,10,5,7,5)(46,5,7,6,9)(46,6,9,5,7)(46,7,6,9,5)(46,9,5,7,6)(47,5,8,6,6)(47,6,5,8,6)(47,6,6,5,8)(47,8,6,6,5)(48,5,9,6,6)(48,6,5,9,6)(48,6,6,5,9)(48,9,6,6,5)(49,5,9,8,11)(49,8,11,5,9)(49,9,8,11,5)(49,11,5,9,8)(50,5,11,8,7)(50,7,5,11,8)(50,8,7,5,11)(50,11,8,7,5)(51,6,6,8,11)(51,6,8,11,6)(51,8,11,6,6)(51,11,6,6,8)(52,6,7,8,7)(52,7,6,7,8)(52,7,8,7,6)(52,8,7,6,7)(53,6,7,11,7)(53,7,6,7,11)(53,7,11,7,6)(53,11,7,6,7)(54,6,8,7,9)(54,7,9,6,8)(54,8,7,9,6)(54,9,6,8,7)(55,6,9,10,7)(55,7,6,9,10)(55,9,10,7,6)(55,10,7,6,9)(56,6,10,7,8)(56,7,8,6,10)(56,8,6,10,7)(56,10,7,8,6)(57,7,8,9,11)(57,8,9,11,7)(57,9,11,7,8)(57,11,7,8,9)(58,7,9,10,11)(58,9,10,11,7)(58,10,11,7,9)(58,11,7,9,10)(59,7,10,10,8)(59,8,7,10,10)(59,10,8,7,10)(59,10,10,8,7)(60,7,10,11,11)(60,10,11,11,7)(60,11,7,10,11)(60,11,11,7,10)(61,7,11,9,8)(61,8,7,11,9)(61,9,8,7,11)(61,11,9,8,7)(62,7,11,9,9)(62,9,7,11,9)(62,9,9,7,11)(62,11,9,9,7)(63,8,8,9,11)(63,8,9,11,8)(63,9,11,8,8)(63,11,8,8,9) </supports>
</extension>
<args> id0[0] u0[0] l1[0] u1[0] l0[0] </args>
<args> id0[1] u0[1] l2[0] u1[1] l1[0] </args>
<args> id0[2] u0[2] l3[0] u1[2] l2[0] </args>
<args> id0[3] u0[3] l4[0] u1[3] l3[0] </args>
<args> id0[4] u0[4] l5[0] u1[4] l4[0] </args>
<args> id0[5] u0[5] l6[0] u1[5] l5[0] </args>
<args> id0[6] u0[6] l7[0] u1[6] l6[0] </args>
<args> id0[7] u0[7] r7[0] u1[7] l7[0] </args>
<args> id1[0] u1[0] l1[1] u2[0] l0[1] </args>
<args> id1[1] u1[1] l2[1] u2[1] l1[1] </args>
<args> id1[2] u1[2] l3[1] u2[2] l2[1] </args>
<args> id1[3] u1[3] l4[1] u2[3] l3[1] </args>
<args> id1[4] u1[4] l5[1] u2[4] l4[1] </args>
<args> id1[5] u1[5] l6[1] u2[5] l5[1] </args>
<args> id1[6] u1[6] l7[1] u2[6] l6[1] </args>
<args> id1[7] u1[7] r7[1] u2[7] l7[1] </args>
<args> id2[0] u2[0] l1[2] u3[0] l0[2] </args>
<args> id2[1] u2[1] l2[2] u3[1] l1[2] </args>
<args> id2[2] u2[2] l3[2] u3[2] l2[2] </args>
<args> id2[3] u2[3] l4[2] u3[3] l3[2] </args>
<args> id2[4] u2[4] l5[2] u3[4] l4[2] </args>
<args> id2[5] u2[5] l6[2] u3[5] l5[2] </args>
<args> id2[6] u2[6] l7[2] u3[6] l6[2] </args>
<args> id2[7] u2[7] r7[2] u3[7] l7[2] </args>
<args> id3[0] u3[0] l1[3] u4[0] l0[3] </args>
<args> id3[1] u3[1] l2[3] u4[1] l1[3] </args>
<args> id3[2] u3[2] l3[3] u4[2] l2[3] </args>
<args> id3[3] u3[3] l4[3] u4[3] l3[3] </args>
<args> id3[4] u3[4] l5[3] u4[4] l4[3] </args>
<args> id3[5] u3[5] l6[3] u4[5] l5[3] </args>
<args> id3[6] u3[6] l7[3] u4[6] l6[3] </args>
<args> id3[7] u3[7] r7[3] u4[7] l7[3] </args>
<args> id4[0] u4[0] l1[4] u5[0] l0[4] </args>
<args> id4[1] u4[1] l2[4] u5[1] l1[4] </args>
<args> id4[2] u4[2] l3[4] u5[2] l2[4] </args>
<args> id4[3] u4[3] l4[4] u5[3] l3[4] </args>
<args> id4[4] u4[4] l5[4] u5[4] l4[4] </args>
<args> id4[5] u4[5] l6[4] u5[5] l5[4] </args>
<args> id4[6] u4[6] l7[4] u5[6] l6[4] </args>
<args> id4[7] u4[7] r7[4] u5[7] l7[4] </args>
<args> id5[0] u5[0] l1[5] u6[0] l0[5] </args>
<args> id5[1] u5[1] l2[5] u6[1] l1[5] </args>
<args> id5[2] u5[2] l3[5] u6[2] l2[5] </args>
<args> id5[3] u5[3] l4[5] u6[3] l3[5] </args>
<args> id5[4] u5[4] l5[5] u6[4] l4[5] </args>
<args> id5[5] u5[5] l6[5] u6[5] l5[5] </args>
<args> id5[6] u5[6] l7[5] u6[6] l6[5] </args>
<args> id5[7] u5[7] r7[5] u6[7] l7[5] </args>
<args> id6[0] u6[0] l1[6] u7[0] l0[6] </args>
<args> id6[1] u6[1] l2[6] u7[1] l1[6] </args>
<args> id6[2] u6[2] l3[6] u7[2] l2[6] </args>
<args> id6[3] u6[3] l4[6] u7[3] l3[6] </args>
<args> id6[4] u6[4] l5[6] u7[4] l4[6] </args>
<args> id6[5] u6[5] l6[6] u7[5] l5[6] </args>
<args> id6[6] u6[6] l7[6] u7[6] l6[6] </args>
<args> id6[7] u6[7] r7[6] u7[7] l7[6] </args>
<args> id7[0] u7[0] l1[7] d7[0] l0[7] </args>
<args> id7[1] u7[1] l2[7] d7[1] l1[7] </args>
<args> id7[2] u7[2] l3[7] d7[2] l2[7] </args>
<args> id7[3] u7[3] l4[7] d7[3] l3[7] </args>
<args> id7[4] u7[4] l5[7] d7[4] l4[7] </args>
<args> id7[5] u7[5] l6[7] d7[5] l5[7] </args>
<args> id7[6] u7[6] l7[7] d7[6] l6[7] </args>
<args> id7[7] u7[7] r7[7] d7[7] l7[7] </args>
</group>
<group>
<intension> eq(%0,%1) </intension>
<args> l0[0] 0 </args>
<args> l0[1] 0 </args>
<args> l0[2] 0 </args>
<args> l0[3] 0 </args>
<args> l0[4] 0 </args>
<args> l0[5] 0 </args>
<args> l0[6] 0 </args>
<args> l0[7] 0 </args>
</group>
<group>
<intension> eq(%0,%1) </intension>
<args> r7[0] 0 </args>
<args> r7[1] 0 </args>
<args> r7[2] 0 </args>
<args> r7[3] 0 </args>
<args> r7[4] 0 </args>
<args> r7[5] 0 </args>
<args> r7[6] 0 </args>
<args> r7[7] 0 </args>
</group>
<group>
<intension> eq(%0,%1) </intension>
<args> u0[0] 0 </args>
<args> u0[1] 0 </args>
<args> u0[2] 0 </args>
<args> u0[3] 0 </args>
<args> u0[4] 0 </args>
<args> u0[5] 0 </args>
<args> u0[6] 0 </args>
<args> u0[7] 0 </args>
</group>
<group>
<intension> eq(%0,%1) </intension>
<args> d7[0] 0 </args>
<args> d7[1] 0 </args>
<args> d7[2] 0 </args>
<args> d7[3] 0 </args>
<args> d7[4] 0 </args>
<args> d7[5] 0 </args>
<args> d7[6] 0 </args>
<args> d7[7] 0 </args>
</group>
</constraints>
</instance>
